
Gurobi 8.1.1 (linux64, Python) logging started Wed Aug 28 12:49:02 2019

Academic license - for non-commercial use only

Gurobi 8.1.1 (linux64, Python) logging started Wed Aug 28 12:52:44 2019

Academic license - for non-commercial use only

Gurobi 8.1.1 (linux64, Python) logging started Wed Aug 28 12:57:25 2019

Academic license - for non-commercial use only

Gurobi 8.1.1 (linux64, Python) logging started Wed Aug 28 13:13:02 2019

Academic license - for non-commercial use only

Gurobi 8.1.1 (linux64, Python) logging started Thu Sep  5 11:59:33 2019

Academic license - for non-commercial use only

Gurobi 8.1.1 (linux64, Python) logging started Thu Sep  5 12:02:01 2019

Academic license - for non-commercial use only

Gurobi 8.1.1 (linux64, Python) logging started Thu Sep  5 12:03:59 2019

Academic license - for non-commercial use only

Gurobi 8.1.1 (linux64, Python) logging started Thu Sep  5 12:04:33 2019

Academic license - for non-commercial use only

Gurobi 8.1.1 (linux64, Python) logging started Thu Sep  5 12:04:43 2019

Academic license - for non-commercial use only

Gurobi 8.1.1 (linux64, Python) logging started Thu Sep  5 12:43:38 2019

Academic license - for non-commercial use only

Gurobi 8.1.1 (linux64, Python) logging started Thu Sep  5 12:44:19 2019

Academic license - for non-commercial use only

Gurobi 8.1.1 (linux64, Python) logging started Thu Sep  5 12:44:44 2019

Academic license - for non-commercial use only

Gurobi 8.1.1 (linux64, Python) logging started Thu Sep  5 12:45:09 2019

Academic license - for non-commercial use only

Gurobi 8.1.1 (linux64, Python) logging started Thu Sep  5 12:45:44 2019

Academic license - for non-commercial use only

Gurobi 8.1.1 (linux64, Python) logging started Thu Sep  5 12:46:26 2019

Academic license - for non-commercial use only

Gurobi 8.1.1 (linux64, Python) logging started Thu Sep  5 12:48:53 2019

Academic license - for non-commercial use only

Gurobi 8.1.1 (linux64, Python) logging started Thu Sep  5 12:49:27 2019

Academic license - for non-commercial use only

Gurobi 8.1.1 (linux64, Python) logging started Thu Sep  5 12:49:59 2019

Academic license - for non-commercial use only

Gurobi 8.1.1 (linux64, Python) logging started Thu Sep  5 12:59:40 2019

Academic license - for non-commercial use only

Gurobi 8.1.1 (linux64, Python) logging started Thu Sep  5 13:02:07 2019

Academic license - for non-commercial use only

Gurobi 8.1.1 (linux64, Python) logging started Thu Sep  5 13:02:45 2019

Academic license - for non-commercial use only

Gurobi 8.1.1 (linux64, Python) logging started Thu Sep  5 13:03:06 2019

Academic license - for non-commercial use only

Gurobi 8.1.1 (linux64, Python) logging started Thu Sep  5 13:04:25 2019

Academic license - for non-commercial use only

Gurobi 8.1.1 (linux64, Python) logging started Thu Sep  5 13:09:27 2019

Academic license - for non-commercial use only

Gurobi 8.1.1 (linux64, Python) logging started Thu Sep  5 13:34:55 2019

Academic license - for non-commercial use only

Gurobi 8.1.1 (linux64, Python) logging started Thu Sep  5 13:36:09 2019

Academic license - for non-commercial use only

Gurobi 8.1.1 (linux64, Python) logging started Thu Sep  5 13:37:59 2019

Academic license - for non-commercial use only

Gurobi 8.1.1 (linux64, Python) logging started Thu Sep  5 19:39:09 2019

Academic license - for non-commercial use only

Gurobi 8.1.1 (linux64, Python) logging started Thu Sep  5 19:40:11 2019

Academic license - for non-commercial use only

Gurobi 8.1.1 (linux64, Python) logging started Thu Sep  5 19:41:48 2019

Academic license - for non-commercial use only

Gurobi 8.1.1 (linux64, Python) logging started Thu Sep  5 19:42:51 2019

Academic license - for non-commercial use only

Gurobi 8.1.1 (linux64, Python) logging started Thu Sep  5 19:43:34 2019

Academic license - for non-commercial use only

Gurobi 8.1.1 (linux64, Python) logging started Thu Sep  5 19:43:52 2019

Academic license - for non-commercial use only

Gurobi 8.1.1 (linux64, Python) logging started Thu Sep  5 19:44:36 2019

Academic license - for non-commercial use only

Gurobi 8.1.1 (linux64, Python) logging started Thu Sep  5 19:44:55 2019

Academic license - for non-commercial use only

Gurobi 8.1.1 (linux64, Python) logging started Thu Sep  5 19:48:25 2019

Academic license - for non-commercial use only

Gurobi 8.1.1 (linux64, Python) logging started Thu Sep  5 19:51:02 2019

Academic license - for non-commercial use only

Gurobi 8.1.1 (linux64, Python) logging started Fri Sep  6 12:10:18 2019

Academic license - for non-commercial use only

Gurobi 8.1.1 (linux64, Python) logging started Fri Sep  6 13:17:51 2019

Academic license - for non-commercial use only

Gurobi 8.1.1 (linux64, Python) logging started Fri Sep  6 13:36:11 2019

Academic license - for non-commercial use only

Gurobi 8.1.1 (linux64, Python) logging started Fri Sep  6 14:00:27 2019

Academic license - for non-commercial use only

Gurobi 8.1.1 (linux64, Python) logging started Fri Sep  6 14:00:57 2019

Academic license - for non-commercial use only

Gurobi 8.1.1 (linux64, Python) logging started Fri Sep  6 14:02:59 2019

Academic license - for non-commercial use only

Gurobi 8.1.1 (linux64, Python) logging started Fri Sep  6 14:04:10 2019

Academic license - for non-commercial use only

Gurobi 8.1.1 (linux64, Python) logging started Fri Sep  6 14:07:34 2019

Academic license - for non-commercial use only

Gurobi 8.1.1 (linux64, Python) logging started Fri Sep  6 14:48:47 2019

Academic license - for non-commercial use only

Gurobi 8.1.1 (linux64, Python) logging started Fri Sep  6 17:25:08 2019

Academic license - for non-commercial use only

Gurobi 8.1.1 (linux64, Python) logging started Fri Sep  6 17:26:11 2019

Academic license - for non-commercial use only

Gurobi 8.1.1 (linux64, Python) logging started Fri Sep  6 18:38:29 2019

Academic license - for non-commercial use only

Gurobi 8.1.1 (linux64, Python) logging started Fri Sep  6 18:41:01 2019

Academic license - for non-commercial use only

Gurobi 8.1.1 (linux64, Python) logging started Fri Sep  6 18:43:35 2019

Academic license - for non-commercial use only

Gurobi 8.1.1 (linux64, Python) logging started Fri Sep  6 19:05:27 2019

Academic license - for non-commercial use only

Gurobi 8.1.1 (linux64, Python) logging started Fri Sep  6 19:09:47 2019

Academic license - for non-commercial use only

Gurobi 8.1.1 (linux64, Python) logging started Fri Sep  6 19:10:39 2019

Academic license - for non-commercial use only

Gurobi 8.1.1 (linux64, Python) logging started Mon Sep  9 10:32:10 2019

Academic license - for non-commercial use only

Gurobi 8.1.1 (linux64, Python) logging started Mon Sep  9 10:34:55 2019

Academic license - for non-commercial use only

Gurobi 8.1.1 (linux64, Python) logging started Mon Sep  9 10:40:55 2019

Academic license - for non-commercial use only

Gurobi 8.1.1 (linux64, Python) logging started Mon Sep  9 11:00:50 2019

Academic license - for non-commercial use only

Gurobi 8.1.1 (linux64, Python) logging started Mon Sep  9 11:10:35 2019

Academic license - for non-commercial use only

Gurobi 8.1.1 (linux64, Python) logging started Mon Sep  9 11:11:00 2019

Academic license - for non-commercial use only

Gurobi 8.1.1 (linux64, Python) logging started Mon Sep  9 11:14:58 2019

Academic license - for non-commercial use only

Gurobi 8.1.1 (linux64, Python) logging started Mon Sep  9 11:20:12 2019

Academic license - for non-commercial use only

Gurobi 8.1.1 (linux64, Python) logging started Mon Sep  9 11:25:07 2019

Academic license - for non-commercial use only

Gurobi 8.1.1 (linux64, Python) logging started Mon Sep  9 12:00:04 2019

Academic license - for non-commercial use only

Gurobi 8.1.1 (linux64, Python) logging started Mon Sep  9 12:02:57 2019

Academic license - for non-commercial use only

Gurobi 8.1.1 (linux64, Python) logging started Mon Sep  9 12:48:32 2019

Academic license - for non-commercial use only

Gurobi 8.1.1 (linux64, Python) logging started Mon Sep  9 12:48:45 2019

Academic license - for non-commercial use only

Gurobi 8.1.1 (linux64, Python) logging started Mon Sep  9 12:49:38 2019

Academic license - for non-commercial use only

Gurobi 8.1.1 (linux64, Python) logging started Mon Sep  9 13:02:28 2019

Academic license - for non-commercial use only

Gurobi 8.1.1 (linux64, Python) logging started Mon Sep  9 13:04:46 2019

Academic license - for non-commercial use only

Gurobi 8.1.1 (linux64, Python) logging started Mon Sep  9 13:06:13 2019

Academic license - for non-commercial use only

Gurobi 8.1.1 (linux64, Python) logging started Mon Sep  9 13:07:12 2019

Academic license - for non-commercial use only

Gurobi 8.1.1 (linux64, Python) logging started Mon Sep  9 13:11:11 2019

Academic license - for non-commercial use only

Gurobi 8.1.1 (linux64, Python) logging started Mon Sep  9 13:12:45 2019

Academic license - for non-commercial use only

Gurobi 8.1.1 (linux64, Python) logging started Mon Sep  9 13:14:37 2019

Academic license - for non-commercial use only

Gurobi 8.1.1 (linux64, Python) logging started Mon Sep  9 13:17:29 2019

Academic license - for non-commercial use only

Gurobi 8.1.1 (linux64, Python) logging started Mon Sep  9 13:19:05 2019

Academic license - for non-commercial use only

Gurobi 8.1.1 (linux64, Python) logging started Mon Sep  9 13:23:38 2019

Academic license - for non-commercial use only

Gurobi 8.1.1 (linux64, Python) logging started Mon Sep  9 13:25:17 2019

Academic license - for non-commercial use only

Gurobi 8.1.1 (linux64, Python) logging started Mon Sep  9 13:26:02 2019

Academic license - for non-commercial use only

Gurobi 8.1.1 (linux64, Python) logging started Mon Sep  9 13:30:40 2019

Academic license - for non-commercial use only

Gurobi 8.1.1 (linux64, Python) logging started Mon Sep  9 14:53:21 2019

Academic license - for non-commercial use only

Gurobi 8.1.1 (linux64, Python) logging started Mon Sep  9 14:55:11 2019

Academic license - for non-commercial use only

Gurobi 8.1.1 (linux64, Python) logging started Mon Sep  9 15:05:12 2019

Academic license - for non-commercial use only

Gurobi 8.1.1 (linux64, Python) logging started Mon Sep  9 15:13:44 2019

Academic license - for non-commercial use only

Gurobi 8.1.1 (linux64, Python) logging started Mon Sep  9 15:16:35 2019

Academic license - for non-commercial use only

Gurobi 8.1.1 (linux64, Python) logging started Mon Sep  9 16:28:14 2019

Academic license - for non-commercial use only

Gurobi 8.1.1 (linux64, Python) logging started Mon Sep  9 16:30:21 2019

Academic license - for non-commercial use only

Gurobi 8.1.1 (linux64, Python) logging started Mon Sep  9 16:32:53 2019

Academic license - for non-commercial use only

Gurobi 8.1.1 (linux64, Python) logging started Mon Sep  9 16:40:00 2019

Academic license - for non-commercial use only

Gurobi 8.1.1 (linux64, Python) logging started Mon Sep  9 16:45:57 2019

Academic license - for non-commercial use only

Gurobi 8.1.1 (linux64, Python) logging started Mon Sep  9 16:48:04 2019

Academic license - for non-commercial use only

Gurobi 8.1.1 (linux64, Python) logging started Mon Sep  9 17:51:39 2019

Academic license - for non-commercial use only

Gurobi 8.1.1 (linux64, Python) logging started Mon Sep  9 17:53:30 2019

Academic license - for non-commercial use only

Gurobi 8.1.1 (linux64, Python) logging started Mon Sep  9 17:55:19 2019

Academic license - for non-commercial use only

Gurobi 8.1.1 (linux64, Python) logging started Mon Sep  9 17:57:28 2019

Academic license - for non-commercial use only

Gurobi 8.1.1 (linux64, Python) logging started Mon Sep  9 18:04:11 2019

Academic license - for non-commercial use only

Gurobi 8.1.1 (linux64, Python) logging started Mon Sep  9 18:06:14 2019

Academic license - for non-commercial use only

Gurobi 8.1.1 (linux64, Python) logging started Mon Sep  9 18:06:41 2019

Academic license - for non-commercial use only
